hello/model/design_smt2.smt2
; SMT-LIBv2 description generated by Yosys 0.22+70 (git sha1 310281a96, clang  -fPIC -Os)
; yosys-smt2-module hello
(declare-sort |hello_s| 0)
(declare-fun |hello_is| (|hello_s|) Bool)
(declare-fun |hello#0| (|hello_s|) Bool) ; \rst
; yosys-smt2-input rst 1
; yosys-smt2-wire rst 1
; yosys-smt2-witness {"offset": 0, "path": ["\\rst"], "smtname": "rst", "smtoffset": 0, "type": "input", "width": 1}
(define-fun |hello_n rst| ((state |hello_s|)) Bool (|hello#0| state))
; yosys-smt2-witness {"offset": 0, "path": ["\\cnt"], "smtname": 1, "smtoffset": 0, "type": "reg", "width": 11}
(declare-fun |hello#1| (|hello_s|) (_ BitVec 11)) ; \cnt
; yosys-smt2-output cnt 11
; yosys-smt2-register cnt 11
; yosys-smt2-wire cnt 11
(define-fun |hello_n cnt| ((state |hello_s|)) (_ BitVec 11) (|hello#1| state))
(declare-fun |hello#2| (|hello_s|) Bool) ; \clk
; yosys-smt2-input clk 1
; yosys-smt2-wire clk 1
; yosys-smt2-clock clk posedge
; yosys-smt2-witness {"offset": 0, "path": ["\\clk"], "smtname": "clk", "smtoffset": 0, "type": "posedge", "width": 1}
; yosys-smt2-witness {"offset": 0, "path": ["\\clk"], "smtname": "clk", "smtoffset": 0, "type": "input", "width": 1}
(define-fun |hello_n clk| ((state |hello_s|)) Bool (|hello#2| state))
(define-fun |hello#3| ((state |hello_s|)) Bool (distinct (|hello#1| state) #b00000001010)) ; $ne$hello.v:11$3_Y
; yosys-smt2-assume 0 $assume$hello.v:8$4 hello.v:8.4-11.32
(define-fun |hello_u 0| ((state |hello_s|)) Bool (or (|hello#3| state) (not true))) ; $assume$hello.v:8$4
(define-fun |hello#4| ((state |hello_s|)) Bool (distinct (|hello#1| state) #b00000001001)) ; $ne$hello.v:12$5_Y
; yosys-smt2-assert 0 $assert$hello.v:11$6 hello.v:11.33-12.31
(define-fun |hello_a 0| ((state |hello_s|)) Bool (or (|hello#4| state) (not true))) ; $assert$hello.v:11$6
(define-fun |hello#5| ((state |hello_s|)) (_ BitVec 11) (bvadd (|hello#1| state) #b00000000001)) ; $add$hello.v:7$2_Y
(define-fun |hello#6| ((state |hello_s|)) (_ BitVec 11) (ite (|hello#0| state) #b00000000000 (|hello#5| state))) ; $0\cnt[10:0]
(define-fun |hello_a| ((state |hello_s|)) Bool 
  (|hello_a 0| state)
)
(define-fun |hello_u| ((state |hello_s|)) Bool 
  (|hello_u 0| state)
)
(define-fun |hello_i| ((state |hello_s|)) Bool 
  (= (|hello#1| state) #b00000000000) ; cnt
)
(define-fun |hello_h| ((state |hello_s|)) Bool true)
(define-fun |hello_t| ((state |hello_s|) (next_state |hello_s|)) Bool 
  (= (|hello#6| state) (|hello#1| next_state)) ; $procdff$11 \cnt
) ; end of module hello
; yosys-smt2-topmod hello
; end of yosys output
